p cnf 2750 2552
c ind 928 929 930 931 932 933 934 935 936 937 0
c ind 938 939 940 941 942 943 944 945 946 947 0
c ind 948 949 950 951 952 953 954 955 956 957 0
c ind 958 959 960 961 962 963 964 1016 1017 1018 0
c ind 1019 1020 1021 1022 1023 1024 1025 1026 1027 1028 0
c ind 1029 1030 1031 1032 1104 1033 1034 1179 1180 1181 0
c ind 1182 1183 1184 1185 1186 1187 1035 1188 1036 1189 0
c ind 1190 1191 1037 1192 1038 1193 1194 1195 1196 1197 0
c ind 1198 1199 1039 1200 1201 1202 1040 1041 1203 1204 0
c ind 1042 1043 1205 1206 1207 1208 1209 1210 1211 1044 0
c ind 1212 1213 1214 1215 1105 1216 1045 1046 1217 1218 0
c ind 1219 1220 1047 1048 1221 1222 1223 1224 1225 1226 0
c ind 1227 1604 1605 1606 1049 1050 1607 1608 1609 1051 0
c ind 1052 1610 1611 1612 1613 1614 1615 1616 1617 1053 0
c ind 1618 1619 1620 1621 1622 1623 1054 1624 1055 1625 0
c ind 1056 1626 1057 1627 1628 1629 1630 1437 1438 1484 0
c ind 1439 1058 1059 1440 1441 1060 1442 1443 1444 1445 0
c ind 1446 1447 1448 1449 1450 1451 1452 1061 1453 1454 0
c ind 1455 1456 1457 1458 1062 1459 1063 1460 1064 1461 0
c ind 1065 1462 1463 1464 1465 1466 1467 1468 1469 1470 0
c ind 1471 1472 1473 1474 1475 1476 1477 1478 1485 1479 0
c ind 1480 1481 1482 1483 965 966 967 968 969 970 0
c ind 971 972 973 974 975 976 977 978 979 980 0
c ind 981 982 983 984 985 986 987 988 989 990 0
c ind 991 992 993 994 995 996 997 998 999 1000 0
c ind 1001 1002 1003 1004 1005 1006 1007 1008 1009 1010 0
c ind 1011 1012 1013 1014 1015 1106 1107 1108 1109 1110 0
c ind 1111 1112 1113 1114 1115 1116 1117 1118 1119 1120 0
c ind 1486 1121 1122 1123 1124 1125 1126 1127 1128 1129 0
c ind 1130 1131 1132 1133 1134 1135 1136 1137 1138 1139 0
c ind 1140 1141 1142 1143 1144 1145 1146 1147 1148 1149 0
c ind 1150 1151 1152 1153 1154 1155 1156 1157 1158 1159 0
c ind 1487 1160 1161 1162 1163 1164 1165 1166 1167 1168 0
c ind 1169 1170 1171 1172 1173 1174 1175 1176 1177 1178 0
c ind 876 877 878 879 880 881 882 883 884 885 0
c ind 886 887 888 889 890 891 892 893 894 895 0
c ind 896 897 898 899 900 901 902 903 904 905 0
c ind 906 907 908 909 910 911 912 913 914 915 0
c ind 916 917 918 919 920 921 922 923 924 925 0
c ind 926 927 0
730 -731 841 0
730 -731 756 0
-730 731 0
-756 -841 -730 0
731 -732 -746 -755 0
-731 732 0
-731 746 0
-731 755 0
732 733 -737 0
-732 -733 0
-732 737 0
-734 -1205 733 0
-736 -1205 733 0
-735 -1205 733 0
-733 1205 0
-733 734 735 736 0
734 -1211 1212 1213 0
-734 1211 0
-734 -1213 0
-734 -1212 0
735 1211 1214 1215 0
-735 -1211 0
-735 -1215 0
-735 -1214 0
736 -1206 1207 1208 0
-736 1206 0
-736 -1208 0
-736 -1207 0
737 738 742 -1441 -1607 0
-737 1607 0
-737 -742 0
-737 1441 0
-737 -738 0
739 1442 738 1443 1444 0
-738 -739 0
-738 -1444 0
-738 -1442 0
-738 -1443 0
739 740 -1447 0
739 740 741 -1448 0
-739 -740 0
-739 -741 1447 0
-739 1447 1448 0
740 1445 -1446 0
-740 -1445 0
-740 1446 0
741 1453 1454 0
741 1453 1461 1462 0
-741 -1453 0
-741 -1454 -1461 0
-741 -1454 -1462 0
743 1608 742 1609 1610 0
-742 -743 0
-742 -1610 0
-742 -1608 0
-742 -1609 0
743 744 -1613 0
743 744 745 -1614 0
-743 -744 0
-743 -745 1613 0
-743 1613 1614 0
744 1611 -1612 0
-744 -1611 0
-744 1612 0
745 1619 1620 0
745 1619 1627 1628 0
-745 -1619 0
-745 -1620 -1627 0
-745 -1620 -1628 0
746 -749 1129 0
746 -749 1122 0
746 747 -749 0
-746 749 0
-747 -1122 -746 -1129 0
747 -748 -1130 1131 0
-747 1130 0
-747 -1131 0
-747 748 0
748 1133 -1134 -1135 1136 0
-748 -1133 0
-748 -1136 0
-748 1135 0
-748 1134 0
749 750 -753 754 0
749 750 -753 1104 0
-749 753 0
-749 -750 0
-754 -1104 -749 0
-751 -752 750 -1111 0
-751 -752 750 -1112 0
-750 752 0
-750 751 0
-750 1111 1112 0
751 1114 1115 1116 1117 0
-751 -1117 0
-751 -1116 0
-751 -1114 0
-751 -1115 0
752 -1108 -1109 -1110 1113 0
-752 1110 0
-752 -1113 0
-752 1108 0
-752 1109 0
753 -884 -913 -942 -1158 0
-753 1158 0
-753 884 0
-753 942 0
-753 913 0
754 990 991 992 0
-754 -990 0
-754 -992 0
-754 -991 0
755 -1485 -1486 0
755 -1484 1487 0
755 -1484 -1486 0
755 -1485 1487 0
1486 -1487 -755 0
1484 1485 -755 0
756 -757 -787 -796 -832 0
-756 832 0
-756 757 0
-756 796 0
-756 787 0
757 -758 775 0
757 775 1432 0
-757 -775 0
-757 758 -1432 0
758 -759 -753 0
758 773 -753 0
753 -758 0
-758 759 -773 0
759 -760 -772 -1065 0
759 760 -761 -772 0
-759 772 0
-759 -760 1065 0
-759 760 761 0
760 1153 -1155 0
-760 -1153 0
-760 1155 0
761 -762 -1064 0
761 762 -763 0
-761 -762 1064 0
-761 762 763 0
762 1125 -1127 0
-762 -1125 0
-762 1127 0
763 764 750 771 0
763 764 750 -768 0
-750 -763 0
-763 -764 0
-763 768 -771 0
764 -766 -1011 1104 0
764 765 1011 1104 0
-764 -1104 0
-764 766 -1011 0
-764 -765 1011 0
765 -1061 -732 0
-765 1061 0
732 -765 0
766 -767 1062 0
765 766 767 0
-766 -767 -1062 0
-765 -766 767 0
767 977 -979 0
-767 -977 0
-767 979 0
766 768 -769 0
-766 -768 0
-768 769 0
769 770 -990 0
769 770 -991 0
769 770 -992 0
-769 -770 0
-769 990 991 992 0
770 998 -1000 0
-770 -998 0
-770 1000 0
771 1063 -1104 0
770 771 -1104 0
-771 1104 0
-770 -771 -1063 0
772 -1122 1129 0
-772 1122 0
-772 -1129 0
773 774 -1122 0
761 763 773 0
763 773 774 0
761 773 -1122 0
-763 -773 1122 0
-761 -773 -774 0
747 774 -1122 -1129 0
-774 1122 0
-774 1129 0
-747 -774 0
775 -776 1071 0
775 776 -1071 0
-775 -776 -1071 0
-775 776 1071 0
776 777 -753 0
753 -776 0
-776 -777 0
777 784 786 -1122 0
777 778 784 786 0
-777 -786 0
-777 -784 0
-777 -778 1122 0
778 779 750 783 0
778 779 750 -782 0
-750 -778 0
-778 -779 0
-778 782 -783 0
779 780 1032 -1104 0
770 779 780 -1104 0
-779 1104 0
-779 -780 0
-770 -779 -1032 0
-769 780 781 0
769 -780 0
-780 -781 0
767 781 1487 0
-767 781 1031 0
732 767 781 0
-767 -781 -1031 0
767 -781 -732 -1487 0
782 1011 -732 -1487 0
767 782 -732 -1487 0
732 -782 0
-782 1487 0
-767 -782 -1011 0
767 783 1104 0
783 1011 1104 0
783 1031 1104 0
-783 -1104 0
-767 -783 -1011 -1031 0
760 -772 784 -785 0
-760 -772 784 -1034 0
772 -784 0
760 -784 785 0
-760 -784 1034 0
-762 785 -1033 0
762 -778 785 0
-762 -785 1033 0
762 778 -785 0
-774 -785 786 0
774 -786 0
785 -786 0
787 -788 -753 0
787 795 -753 0
753 -787 0
788 -795 -787 0
760 -772 788 -789 0
-760 -772 788 -1038 0
772 -788 0
760 -788 789 0
-760 -788 1038 0
-762 789 -1037 0
762 789 -790 0
-762 -789 1037 0
762 -789 790 0
790 791 750 794 0
790 791 750 -793 0
-750 -790 0
-790 -791 0
-790 793 -794 0
791 -792 -1011 1104 0
732 791 1011 1104 0
-791 -1104 0
-791 792 -1011 0
-791 1011 -732 0
732 767 792 0
-767 792 1035 0
767 -792 -732 0
-767 -792 -1035 0
-769 792 793 0
769 -793 0
-792 -793 0
794 1036 -1104 0
770 794 -1104 0
-794 1104 0
-770 -794 -1036 0
789 795 -1122 0
774 790 795 0
789 790 795 0
774 795 -1122 0
-774 -789 -795 0
-790 -795 1122 0
796 -797 -812 -1415 0
796 797 -812 1415 0
-796 812 0
-796 797 -1415 0
-796 -797 1415 0
797 798 -753 0
753 -797 0
-797 -798 0
798 802 -809 0
798 -807 -809 0
798 -799 -809 0
-798 809 0
-798 799 -802 807 0
799 -801 -1011 1104 0
799 800 1011 1104 0
-799 -1104 0
-799 801 -1011 0
-799 -800 1011 0
800 -1044 -732 0
-800 1044 0
732 -800 0
-767 801 1045 0
767 800 801 0
-767 -801 -1045 0
767 -800 -801 0
802 803 750 0
-750 -802 0
-802 -803 0
-762 803 -1122 0
803 804 -1122 0
-803 1122 0
762 -803 -804 0
804 805 806 0
748 804 805 -1122 0
-804 -805 0
-804 -806 1122 0
-748 -804 -806 0
-760 805 1129 0
-805 -1129 0
760 -805 0
806 -1129 -1130 1131 0
-806 1129 0
-806 1130 0
-806 -1131 0
807 808 1046 -1104 0
770 807 808 -1104 0
-807 1104 0
-807 -808 0
-770 -807 -1046 0
-769 801 808 0
769 -808 0
-801 -808 0
760 809 810 0
772 809 810 0
809 810 1048 0
-809 -810 0
-760 -772 -809 -1048 0
-762 810 -811 -1047 0
-810 1047 0
762 -810 0
-810 811 0
-804 811 -1122 0
-811 1122 0
804 -811 0
812 -831 -813 1395 0
812 831 -813 -1395 0
-812 813 0
-812 -831 -1395 0
-812 831 1395 0
813 -814 -821 0
813 816 -819 -821 0
-813 821 0
814 -816 -813 0
814 819 -813 0
-762 814 -1122 0
814 -815 -1122 0
-814 1122 0
762 -814 815 0
-760 815 -1052 1129 0
-815 1052 0
-815 -1129 0
760 -815 0
816 -818 -1011 1104 0
816 817 1011 1104 0
-816 -1104 0
-816 818 -1011 0
-816 -817 1011 0
817 -1486 -732 0
-817 1486 0
732 -817 0
-767 818 1049 0
767 817 818 0
-767 -818 -1049 0
767 -817 -818 0
819 820 750 0
-769 818 750 819 0
-750 -819 0
769 -819 -820 0
-818 -819 -820 0
820 1050 -1104 0
770 820 -1104 0
-820 1104 0
-770 -820 -1050 0
821 -822 -824 -829 0
821 824 -826 -829 0
-821 829 0
822 -824 -821 0
824 826 -821 0
822 -1030 -1060 0
822 823 -1060 0
-822 1060 0
-822 -823 1030 0
823 -1022 -737 1024 0
-823 1022 0
-823 -1024 0
737 -823 0
824 -1012 1474 0
824 825 1474 0
824 -1011 1474 0
-824 -1474 0
-824 -825 1011 1012 0
825 1013 1014 1015 1104 0
-825 -1104 0
-825 -1015 0
-825 -1013 0
-825 -1014 0
826 828 -737 -1028 0
826 827 -737 828 0
737 -826 0
-826 -828 0
-826 -827 1028 0
827 -1022 1024 0
-827 1022 0
-827 -1024 0
-733 828 1022 0
828 1022 1059 1184 0
-828 -1022 0
-828 -1059 733 0
-828 -1184 733 0
-815 829 -746 0
803 829 -746 0
829 -830 -746 0
746 -829 0
-803 815 -829 830 0
-804 830 -1051 0
-830 1051 0
804 -830 0
-823 831 -746 0
746 -831 0
823 -831 0
832 -833 -1424 0
832 833 1424 0
-832 -833 1424 0
-832 833 -1424 0
833 839 -753 0
833 834 -753 -837 0
753 -833 0
-833 -834 -839 0
-833 837 -839 0
834 -836 -1011 1104 0
834 835 1011 1104 0
-834 -1104 0
-834 836 -1011 0
-834 -835 1011 0
835 -1053 -732 0
-835 1053 0
732 -835 0
-767 836 1054 0
767 835 836 0
-767 -836 -1054 0
767 -835 -836 0
-802 837 838 0
-769 -802 836 837 0
802 -837 0
769 -837 -838 0
-836 -837 -838 0
838 1055 -1104 0
770 838 -1104 0
-838 1104 0
-770 -838 -1055 0
760 839 840 0
772 839 840 0
839 840 1057 0
-839 -840 0
-760 -772 -839 -1057 0
-762 -811 840 -1056 0
-840 1056 0
762 -840 0
811 -840 0
841 -842 852 -1410 0
841 842 852 1410 0
-841 -852 0
-841 842 -1410 0
-841 -842 1410 0
842 -843 -753 0
842 851 -753 0
753 -842 0
-842 843 -851 0
760 -772 843 -844 0
-760 -772 843 -1043 0
772 -843 0
760 -843 844 0
-760 -843 1043 0
-762 844 -1042 0
762 844 -845 0
-762 -844 1042 0
762 -844 845 0
845 846 750 850 0
845 846 750 -849 0
-750 -845 0
-845 -846 0
-845 849 -850 0
846 -848 -1011 1104 0
846 847 1011 1104 0
-846 -1104 0
-846 848 -1011 0
-846 -847 1011 0
847 -1039 -732 0
-847 1039 0
732 -847 0
-767 848 1040 0
767 847 848 0
-767 -848 -1040 0
767 -847 -848 0
-769 848 849 0
769 -849 0
-848 -849 0
850 1041 -1104 0
770 850 -1104 0
-850 1104 0
-770 -850 -1041 0
844 851 -1122 0
774 845 851 0
844 845 851 0
774 851 -1122 0
-774 -844 -851 0
-845 -851 1122 0
-758 852 1432 0
-852 -1432 0
758 -852 0
854 -731 853 0
-842 2165 853 -731 0
842 -2165 853 -731 0
731 -853 0
842 -853 -854 2165 0
-842 -853 -854 -2165 0
-758 854 -855 -2187 0
758 854 -855 2187 0
-854 855 0
758 -2187 -854 0
-758 2187 -854 0
776 855 -856 -857 1826 0
-776 855 -856 -857 -1826 0
-855 857 0
776 -1826 -855 0
-855 856 0
-776 1826 -855 0
856 -813 -787 0
787 -856 0
813 -856 0
857 -858 -859 2179 0
-833 857 -858 -859 0
-857 859 0
-857 858 0
833 -2179 -857 0
-831 858 2150 0
831 858 -2150 0
-831 -2150 -858 0
831 2150 -858 0
-797 833 859 -2170 0
797 833 859 2170 0
797 859 2170 -2179 0
-797 859 -2170 -2179 0
797 -2170 -859 0
-797 2170 -859 0
-833 2179 -859 0
-842 860 -731 0
756 860 -731 0
-852 860 -731 0
731 -860 0
-756 842 852 -860 0
-833 861 -731 0
861 862 -731 0
796 861 -731 0
731 -861 0
-796 833 -861 -862 0
-757 852 -787 862 0
757 -862 0
787 -862 0
-852 -862 0
-797 863 -731 0
862 863 -731 0
812 863 -731 0
731 -863 0
797 -812 -862 -863 0
-758 864 -731 0
864 865 -731 0
731 -864 0
758 -864 -865 0
775 865 -866 0
-775 -865 0
-865 866 0
-812 866 -787 0
787 -866 0
812 -866 0
866 867 -731 0
777 867 -731 0
731 -867 0
-777 -866 -867 0
856 868 -731 0
831 868 -731 0
731 -868 0
-831 -868 -856 0
856 869 -731 0
731 -869 0
-856 -869 0
842 870 -731 0
756 870 -731 0
-852 870 -731 0
731 -870 0
-756 -842 852 -870 0
862 871 -731 0
796 871 -731 0
833 871 -731 0
731 -871 0
-796 -833 -862 -871 0
-798 872 -731 0
862 872 -731 0
812 872 -731 0
731 -872 0
798 -812 -862 -872 0
865 873 -731 0
758 873 -731 0
731 -873 0
-758 -865 -873 0
-777 874 -731 0
866 874 -731 0
731 -874 0
777 -866 -874 0
-831 875 -731 0
856 875 -731 0
731 -875 0
831 -875 -856 0
1 730 0
-1 -730 0
2 730 0
-2 -730 0
3 853 0
-3 -853 0
97 -860 0
-97 860 0
98 -861 0
-98 861 0
99 -863 0
-99 863 0
100 -864 0
-100 864 0
102 -867 0
-102 867 0
120 -868 0
-120 868 0
269 -869 0
-269 869 0
460 -870 0
-460 870 0
461 -871 0
-461 871 0
462 -872 0
-462 872 0
463 -873 0
-463 873 0
465 -874 0
-465 874 0
483 -875 0
-483 875 0
632 -869 0
-632 869 0
-97 -460 2480 0
97 -2480 0
460 -2480 0
97 -1410 0
-97 1410 0
-98 -461 2481 0
98 -2481 0
461 -2481 0
98 -1424 0
-98 1424 0
-99 -462 2482 0
99 -2482 0
462 -2482 0
99 -1415 0
-99 1415 0
-100 -463 2483 0
100 -2483 0
463 -2483 0
100 -1432 0
-100 1432 0
-102 -465 2485 0
102 -2485 0
465 -2485 0
102 -1071 0
-102 1071 0
-120 -483 2503 0
120 -2503 0
483 -2503 0
120 -1395 0
-120 1395 0
-269 -632 2652 0
269 -2652 0
632 -2652 0
269 -1309 0
-269 1309 0
-1 0
-2 0
3 0
4 0
5 0
6 0
7 0
8 0
9 0
10 0
11 0
12 0
13 0
14 0
15 0
16 0
17 0
18 0
19 0
20 0
21 0
22 0
23 0
24 0
25 0
26 0
27 0
28 0
29 0
30 0
31 0
32 0
33 0
34 0
35 0
36 0
37 0
38 0
39 0
40 0
41 0
42 0
43 0
44 0
45 0
46 0
47 0
48 0
49 0
50 0
51 0
52 0
53 0
54 0
55 0
56 0
57 0
58 0
59 0
60 0
61 0
62 0
63 0
64 0
65 0
66 0
67 0
68 0
69 0
70 0
71 0
72 0
73 0
74 0
75 0
76 0
77 0
78 0
79 0
80 0
81 0
82 0
83 0
84 0
85 0
86 0
87 0
88 0
89 0
90 0
91 0
92 0
93 0
94 0
95 0
96 0
101 0
103 0
104 0
105 0
106 0
107 0
108 0
109 0
110 0
111 0
112 0
113 0
114 0
115 0
116 0
117 0
118 0
119 0
121 0
122 0
123 0
124 0
125 0
126 0
127 0
128 0
129 0
130 0
131 0
132 0
133 0
134 0
135 0
136 0
137 0
138 0
139 0
140 0
141 0
142 0
143 0
144 0
145 0
146 0
147 0
148 0
149 0
150 0
151 0
152 0
153 0
154 0
155 0
156 0
157 0
158 0
159 0
160 0
161 0
162 0
163 0
164 0
165 0
166 0
167 0
168 0
169 0
170 0
171 0
172 0
173 0
174 0
175 0
176 0
177 0
178 0
179 0
180 0
181 0
182 0
183 0
184 0
185 0
186 0
187 0
188 0
189 0
190 0
191 0
192 0
193 0
194 0
195 0
196 0
197 0
198 0
199 0
200 0
201 0
202 0
203 0
204 0
205 0
206 0
207 0
208 0
209 0
210 0
211 0
212 0
213 0
214 0
-215 0
216 0
217 0
218 0
219 0
220 0
221 0
222 0
223 0
224 0
225 0
226 0
227 0
228 0
229 0
230 0
231 0
232 0
233 0
234 0
235 0
236 0
237 0
238 0
239 0
240 0
241 0
242 0
243 0
244 0
245 0
246 0
247 0
248 0
249 0
250 0
251 0
252 0
253 0
254 0
255 0
256 0
257 0
258 0
259 0
260 0
261 0
262 0
263 0
264 0
265 0
266 0
267 0
268 0
-269 0
270 0
271 0
272 0
273 0
274 0
275 0
276 0
277 0
-278 0
279 0
280 0
281 0
282 0
283 0
284 0
285 0
286 0
287 0
288 0
289 0
290 0
291 0
292 0
293 0
294 0
295 0
296 0
297 0
298 0
299 0
300 0
301 0
302 0
303 0
304 0
305 0
-306 0
307 0
308 0
309 0
310 0
311 0
312 0
313 0
314 0
315 0
316 0
317 0
318 0
319 0
320 0
321 0
322 0
323 0
324 0
325 0
326 0
327 0
328 0
329 0
330 0
331 0
332 0
333 0
334 0
335 0
336 0
337 0
338 0
339 0
340 0
341 0
342 0
343 0
344 0
345 0
346 0
347 0
348 0
349 0
350 0
351 0
352 0
353 0
354 0
355 0
356 0
357 0
358 0
359 0
360 0
361 0
362 0
363 0
364 0
365 0
366 0
-367 0
-368 0
-369 0
-370 0
-371 0
-372 0
-373 0
-374 0
-375 0
-376 0
-377 0
-378 0
-379 0
-380 0
-381 0
-382 0
-383 0
-384 0
-385 0
-386 0
-387 0
-388 0
-389 0
-390 0
-391 0
-392 0
-393 0
-394 0
-395 0
-396 0
-397 0
-398 0
-399 0
-400 0
-401 0
-402 0
-403 0
-404 0
-405 0
-406 0
-407 0
-408 0
-409 0
-410 0
-411 0
-412 0
-413 0
-414 0
-415 0
-416 0
-417 0
-418 0
-419 0
-420 0
-421 0
-422 0
-423 0
-424 0
-425 0
-426 0
-427 0
-428 0
-429 0
-430 0
-431 0
-432 0
-433 0
-434 0
-435 0
-436 0
-437 0
-438 0
-439 0
-440 0
-441 0
-442 0
-443 0
-444 0
-445 0
-446 0
-447 0
-448 0
-449 0
-450 0
-451 0
-452 0
-453 0
-454 0
-455 0
-456 0
-457 0
-458 0
-459 0
-464 0
-466 0
-467 0
-468 0
-469 0
-470 0
-471 0
-472 0
-473 0
-474 0
-475 0
-476 0
-477 0
-478 0
-479 0
-480 0
-481 0
-482 0
-484 0
-485 0
-486 0
-487 0
-488 0
-489 0
-490 0
-491 0
-492 0
-493 0
-494 0
-495 0
-496 0
-497 0
-498 0
-499 0
-500 0
-501 0
-502 0
-503 0
-504 0
-505 0
-506 0
-507 0
-508 0
-509 0
-510 0
-511 0
-512 0
-513 0
-514 0
-515 0
-516 0
-517 0
-518 0
-519 0
-520 0
-521 0
-522 0
-523 0
-524 0
-525 0
-526 0
-527 0
-528 0
-529 0
-530 0
-531 0
-532 0
-533 0
-534 0
-535 0
-536 0
-537 0
-538 0
-539 0
-540 0
-541 0
-542 0
-543 0
-544 0
-545 0
-546 0
-547 0
-548 0
-549 0
-550 0
-551 0
-552 0
-553 0
-554 0
-555 0
-556 0
-557 0
-558 0
-559 0
-560 0
-561 0
-562 0
-563 0
-564 0
-565 0
-566 0
-567 0
-568 0
-569 0
-570 0
-571 0
-572 0
-573 0
-574 0
-575 0
-576 0
-577 0
578 0
-579 0
-580 0
-581 0
-582 0
-583 0
-584 0
-585 0
-586 0
-587 0
-588 0
-589 0
-590 0
-591 0
-592 0
-593 0
-594 0
-595 0
-596 0
-597 0
-598 0
-599 0
-600 0
-601 0
-602 0
-603 0
-604 0
-605 0
-606 0
-607 0
-608 0
-609 0
-610 0
-611 0
-612 0
-613 0
-614 0
-615 0
-616 0
-617 0
-618 0
-619 0
-620 0
-621 0
-622 0
-623 0
-624 0
-625 0
-626 0
-627 0
-628 0
-629 0
-630 0
-631 0
-632 0
-633 0
-634 0
-635 0
-636 0
-637 0
-638 0
-639 0
-640 0
641 0
-642 0
-643 0
-644 0
-645 0
-646 0
-647 0
-648 0
-649 0
-650 0
-651 0
-652 0
-653 0
-654 0
-655 0
-656 0
-657 0
-658 0
-659 0
-660 0
-661 0
-662 0
-663 0
-664 0
-665 0
-666 0
-667 0
-668 0
669 0
-670 0
-671 0
-672 0
-673 0
-674 0
-675 0
-676 0
-677 0
-678 0
-679 0
-680 0
-681 0
-682 0
-683 0
-684 0
-685 0
-686 0
-687 0
-688 0
-689 0
-690 0
-691 0
-692 0
-693 0
-694 0
-695 0
-696 0
-697 0
-698 0
-699 0
-700 0
-701 0
-702 0
-703 0
-704 0
-705 0
-706 0
-707 0
-708 0
-709 0
-710 0
-711 0
-712 0
-713 0
-714 0
-715 0
-716 0
-717 0
-718 0
-719 0
-720 0
-721 0
-722 0
-723 0
-724 0
-725 0
-726 0
-727 0
-728 0
-729 0
730 0
731 0
732 0
-733 0
737 0
-738 0
-742 0
746 0
749 0
-750 0
753 0
755 0
787 0
813 0
821 0
829 0
-853 0
854 0
855 0
856 0
857 0
858 0
859 0
-869 0
884 0
913 0
942 0
-1066 0
1067 0
1068 0
1069 0
1070 0
1072 0
1073 0
1074 0
1075 0
1076 0
1077 0
1078 0
1079 0
1080 0
1081 0
1082 0
1083 0
1084 0
1085 0
1086 0
1087 0
1088 0
1089 0
1090 0
1091 0
1092 0
1093 0
1094 0
1095 0
1096 0
1097 0
1098 0
1099 0
1100 0
1101 0
1102 0
1103 0
1158 0
1228 0
1229 0
1230 0
1231 0
1232 0
1233 0
1234 0
1235 0
1236 0
1237 0
1238 0
1239 0
1240 0
1241 0
1242 0
1243 0
1244 0
1245 0
1246 0
1247 0
1248 0
1249 0
1250 0
1251 0
1252 0
-1253 0
1254 0
1255 0
1256 0
1257 0
1258 0
1259 0
1260 0
1261 0
1262 0
1263 0
1264 0
1265 0
1266 0
1267 0
1268 0
1269 0
1270 0
1271 0
1272 0
1273 0
1274 0
1275 0
1276 0
1277 0
1278 0
1279 0
1280 0
-1281 0
1282 0
1283 0
1284 0
1285 0
1286 0
1287 0
1288 0
1289 0
1290 0
1291 0
1292 0
1293 0
1294 0
1295 0
1296 0
1297 0
1298 0
1299 0
1300 0
1301 0
1302 0
1303 0
1304 0
1305 0
1306 0
1307 0
1308 0
-1309 0
1310 0
1311 0
1312 0
1313 0
1314 0
1315 0
1316 0
1317 0
1318 0
1319 0
1320 0
1321 0
1322 0
1323 0
1324 0
1325 0
1326 0
1327 0
1328 0
1329 0
1330 0
1331 0
1332 0
1333 0
1334 0
1335 0
1336 0
1337 0
1338 0
1339 0
1340 0
1341 0
1342 0
1343 0
1344 0
1345 0
1346 0
1347 0
1348 0
1349 0
1350 0
1351 0
1352 0
1353 0
1354 0
1355 0
1356 0
1357 0
1358 0
1359 0
1360 0
1361 0
1362 0
1363 0
1364 0
1365 0
1366 0
1367 0
1368 0
1369 0
1370 0
1371 0
1372 0
1373 0
1374 0
1375 0
1376 0
1377 0
1378 0
1379 0
1380 0
1381 0
1382 0
1383 0
1384 0
1385 0
1386 0
1387 0
1388 0
1389 0
1390 0
1391 0
1392 0
1393 0
1394 0
1396 0
1397 0
1398 0
1399 0
1400 0
1401 0
1402 0
1403 0
1404 0
1405 0
1406 0
1407 0
1408 0
1409 0
1411 0
1412 0
1413 0
1414 0
1416 0
1417 0
1418 0
1419 0
1420 0
1421 0
1422 0
1423 0
1425 0
1426 0
1427 0
1428 0
1429 0
1430 0
1431 0
1433 0
1434 0
1435 0
1436 0
1441 0
1488 0
1489 0
1490 0
1491 0
1492 0
1493 0
1494 0
1495 0
1496 0
1497 0
1498 0
1499 0
1500 0
1501 0
1502 0
1503 0
1504 0
1505 0
1506 0
1507 0
1508 0
1509 0
1510 0
1511 0
1512 0
1513 0
1514 0
1515 0
1516 0
1517 0
1518 0
1519 0
1520 0
1521 0
1522 0
1523 0
1524 0
1525 0
1526 0
1527 0
1528 0
1529 0
1530 0
1531 0
1532 0
1533 0
1534 0
1535 0
1536 0
1537 0
1538 0
1539 0
1540 0
1541 0
1542 0
1543 0
1544 0
1545 0
1546 0
1547 0
1548 0
1549 0
1550 0
1551 0
1552 0
1553 0
1554 0
1555 0
1556 0
1557 0
1558 0
1559 0
1560 0
1561 0
1562 0
1563 0
1564 0
1565 0
1566 0
1567 0
1568 0
1569 0
1570 0
1571 0
1572 0
1573 0
1574 0
1575 0
1576 0
1577 0
1578 0
1579 0
1580 0
1581 0
1582 0
1583 0
1584 0
1585 0
1586 0
1587 0
1588 0
1589 0
1590 0
1591 0
1592 0
1593 0
1594 0
1595 0
1596 0
1597 0
1598 0
1599 0
1600 0
1601 0
1602 0
1603 0
1607 0
2386 0
-2387 0
-2388 0
-2389 0
-2390 0
-2391 0
-2392 0
-2393 0
-2394 0
-2395 0
-2396 0
-2397 0
-2398 0
-2399 0
-2400 0
-2401 0
-2402 0
-2403 0
-2404 0
-2405 0
-2406 0
-2407 0
-2408 0
-2409 0
-2410 0
-2411 0
-2412 0
-2413 0
-2414 0
-2415 0
-2416 0
-2417 0
-2418 0
-2419 0
-2420 0
-2421 0
-2422 0
-2423 0
-2424 0
-2425 0
-2426 0
-2427 0
-2428 0
-2429 0
-2430 0
-2431 0
-2432 0
-2433 0
-2434 0
-2435 0
-2436 0
-2437 0
-2438 0
-2439 0
-2440 0
-2441 0
-2442 0
-2443 0
-2444 0
-2445 0
-2446 0
-2447 0
-2448 0
-2449 0
-2450 0
-2451 0
-2452 0
-2453 0
-2454 0
-2455 0
-2456 0
-2457 0
-2458 0
-2459 0
-2460 0
-2461 0
-2462 0
-2463 0
-2464 0
-2465 0
-2466 0
-2467 0
-2468 0
-2469 0
-2470 0
-2471 0
-2472 0
-2473 0
-2474 0
-2475 0
-2476 0
-2477 0
-2478 0
-2479 0
-2484 0
-2486 0
-2487 0
-2488 0
-2489 0
-2490 0
-2491 0
-2492 0
-2493 0
-2494 0
-2495 0
-2496 0
-2497 0
-2498 0
-2499 0
-2500 0
-2501 0
-2502 0
-2504 0
-2505 0
-2506 0
-2507 0
-2508 0
-2509 0
-2510 0
-2511 0
-2512 0
-2513 0
-2514 0
-2515 0
-2516 0
-2517 0
-2518 0
-2519 0
-2520 0
-2521 0
-2522 0
-2523 0
-2524 0
-2525 0
-2526 0
-2527 0
-2528 0
-2529 0
-2530 0
-2531 0
-2532 0
-2533 0
-2534 0
-2535 0
-2536 0
-2537 0
-2538 0
-2539 0
-2540 0
-2541 0
-2542 0
-2543 0
-2544 0
-2545 0
-2546 0
-2547 0
-2548 0
-2549 0
-2550 0
-2551 0
-2552 0
-2553 0
-2554 0
-2555 0
-2556 0
-2557 0
-2558 0
-2559 0
-2560 0
-2561 0
-2562 0
-2563 0
-2564 0
-2565 0
-2566 0
-2567 0
-2568 0
-2569 0
-2570 0
-2571 0
-2572 0
-2573 0
-2574 0
-2575 0
-2576 0
-2577 0
-2578 0
-2579 0
-2580 0
-2581 0
-2582 0
-2583 0
-2584 0
-2585 0
-2586 0
-2587 0
-2588 0
-2589 0
-2590 0
-2591 0
-2592 0
-2593 0
-2594 0
-2595 0
-2596 0
-2597 0
-2598 0
-2599 0
-2600 0
-2601 0
-2602 0
-2603 0
-2604 0
-2605 0
-2606 0
-2607 0
-2608 0
-2609 0
-2610 0
-2611 0
-2612 0
-2613 0
-2614 0
-2615 0
-2616 0
-2617 0
-2618 0
-2619 0
-2620 0
-2621 0
-2622 0
-2623 0
-2624 0
-2625 0
-2626 0
-2627 0
-2628 0
-2629 0
-2630 0
-2631 0
-2632 0
-2633 0
-2634 0
-2635 0
-2636 0
-2637 0
-2638 0
-2639 0
-2640 0
-2641 0
-2642 0
-2643 0
-2644 0
-2645 0
-2646 0
-2647 0
-2648 0
-2649 0
-2650 0
-2651 0
-2652 0
-2653 0
-2654 0
-2655 0
-2656 0
-2657 0
-2658 0
-2659 0
-2660 0
-2661 0
-2662 0
-2663 0
-2664 0
-2665 0
-2666 0
-2667 0
-2668 0
-2669 0
-2670 0
-2671 0
-2672 0
-2673 0
-2674 0
-2675 0
-2676 0
-2677 0
-2678 0
-2679 0
-2680 0
-2681 0
-2682 0
-2683 0
-2684 0
-2685 0
-2686 0
-2687 0
-2688 0
-2689 0
-2690 0
-2691 0
-2692 0
-2693 0
-2694 0
-2695 0
-2696 0
-2697 0
-2698 0
-2699 0
-2700 0
-2701 0
-2702 0
-2703 0
-2704 0
-2705 0
-2706 0
-2707 0
-2708 0
-2709 0
-2710 0
-2711 0
-2712 0
-2713 0
-2714 0
-2715 0
-2716 0
-2717 0
-2718 0
-2719 0
-2720 0
-2721 0
-2722 0
-2723 0
-2724 0
-2725 0
-2726 0
-2727 0
-2728 0
-2729 0
-2730 0
-2731 0
-2732 0
-2733 0
-2734 0
-2735 0
-2736 0
-2737 0
-2738 0
-2739 0
-2740 0
-2741 0
-2742 0
-2743 0
-2744 0
-2745 0
-2746 0
-2747 0
-2748 0
-2749 0
-1683 0
-1684 0
-1685 0
-1686 0
-1687 0
-1688 0
-1689 0
-1690 0
-1691 0
-1692 0
-1693 0
-1694 0
-1695 0
-1696 0
-1697 0
-1698 0
-1699 0
-1700 0
-1701 0
-1702 0
-1703 0
-1704 0
-1705 0
-1706 0
-1707 0
-1708 0
-1709 0
-1710 0
-1711 0
-1712 0
-1713 0
-1714 0
-1715 0
-1716 0
-1717 0
-1718 0
-1719 0
-1771 0
-1772 0
-1773 0
-1774 0
-1775 0
-1776 0
-1777 0
-1778 0
-1779 0
-1780 0
-1781 0
-1782 0
-1783 0
-1784 0
-1785 0
-1786 0
-1787 0
-1859 0
-1788 0
-1789 0
-1934 0
-1935 0
-1936 0
-1937 0
-1938 0
-1939 0
-1940 0
-1941 0
-1942 0
-1790 0
-1943 0
-1791 0
-1944 0
-1945 0
-1946 0
-1792 0
-1947 0
-1793 0
-1948 0
-1949 0
-1950 0
-1951 0
-1952 0
-1953 0
-1954 0
-1794 0
-1955 0
-1956 0
-1957 0
-1795 0
-1796 0
-1958 0
-1959 0
-1797 0
-1798 0
-1960 0
-1961 0
-1962 0
-1963 0
-1964 0
-1965 0
-1966 0
-1799 0
-1967 0
-1968 0
-1969 0
-1970 0
-1860 0
-1971 0
-1800 0
-1801 0
-1972 0
-1973 0
-1974 0
-1975 0
-1802 0
-1803 0
-1976 0
-1977 0
-1978 0
-1979 0
-1980 0
-1981 0
-1982 0
-2359 0
-2360 0
-2361 0
-1804 0
-1805 0
-2362 0
-2363 0
-2364 0
-1806 0
-1807 0
-2365 0
-2366 0
-2367 0
-2368 0
-2369 0
-2370 0
-2371 0
-2372 0
-1808 0
-2373 0
-2374 0
-2375 0
-2376 0
-2377 0
-2378 0
-1809 0
-2379 0
-1810 0
-2380 0
-1811 0
-2381 0
-1812 0
-2382 0
-2383 0
-2384 0
-2385 0
-2192 0
-2193 0
-2239 0
-2194 0
-1813 0
-1814 0
-2195 0
-2196 0
-1815 0
-2197 0
-2198 0
-2199 0
-2200 0
-2201 0
-2202 0
-2203 0
-2204 0
-2205 0
-2206 0
-2207 0
-1816 0
-2208 0
-2209 0
-2210 0
-2211 0
-2212 0
-2213 0
-1817 0
-2214 0
-1818 0
-2215 0
-1819 0
-2216 0
-1820 0
-2217 0
-2218 0
-2219 0
-2220 0
-2221 0
-2222 0
-2223 0
-2224 0
-2225 0
-2226 0
-2227 0
-2228 0
-2229 0
-2230 0
-2231 0
-2232 0
-2233 0
-2240 0
-2234 0
-2235 0
-2236 0
-2237 0
-2238 0
-1720 0
-1721 0
-1722 0
-1723 0
-1724 0
-1725 0
-1726 0
-1727 0
-1728 0
-1729 0
-1730 0
-1731 0
-1732 0
-1733 0
-1734 0
-1735 0
-1736 0
-1737 0
-1738 0
-1739 0
-1740 0
-1741 0
-1742 0
-1743 0
-1744 0
-1745 0
-1746 0
-1747 0
-1748 0
-1749 0
-1750 0
-1751 0
-1752 0
-1753 0
-1754 0
-1755 0
-1756 0
-1757 0
-1758 0
-1759 0
-1760 0
-1761 0
-1762 0
-1763 0
-1764 0
-1765 0
-1766 0
-1767 0
-1768 0
-1769 0
-1770 0
-1861 0
-1862 0
-1863 0
-1864 0
-1865 0
-1866 0
-1867 0
-1868 0
-1869 0
-1870 0
-1871 0
-1872 0
-1873 0
-1874 0
-1875 0
-2241 0
-1876 0
-1877 0
-1878 0
-1879 0
-1880 0
-1881 0
-1882 0
-1883 0
-1884 0
-1885 0
-1886 0
-1887 0
-1888 0
-1889 0
-1890 0
-1891 0
-1892 0
-1893 0
-1894 0
-1895 0
-1896 0
-1897 0
-1898 0
-1899 0
-1900 0
-1901 0
-1902 0
-1903 0
-1904 0
-1905 0
-1906 0
-1907 0
-1908 0
-1909 0
-1910 0
-1911 0
-1912 0
-1913 0
-1914 0
-2242 0
-1915 0
-1916 0
-1917 0
-1918 0
-1919 0
-1920 0
-1921 0
-1922 0
-1923 0
-1924 0
-1925 0
-1926 0
-1927 0
-1928 0
-1929 0
-1930 0
-1931 0
-1932 0
-1933 0
-1631 0
-1632 0
-1633 0
-1634 0
-1635 0
-1636 0
-1637 0
-1638 0
-1639 0
-1640 0
-1641 0
-1642 0
-1643 0
-1644 0
-1645 0
-1646 0
-1647 0
-1648 0
-1649 0
-1650 0
-1651 0
-1652 0
-1653 0
-1654 0
-1655 0
-1656 0
-1657 0
-1658 0
-1659 0
-1660 0
-1661 0
-1662 0
-1663 0
-1664 0
-1665 0
-1666 0
-1667 0
-1668 0
-1669 0
-1670 0
-1671 0
-1672 0
-1673 0
-1674 0
-1675 0
-1676 0
-1677 0
-1678 0
-1679 0
-1680 0
-1681 0
-1682 0

